p ocr 2006 2006 4010
1 2009
1 2013
1 2018
1 2020
1 2021
1 2024
1 2026
1 2028
1 2030
1 2035
1 2036
1 2037
1 2039
1 2041
1 2043
1 2048
1 2049
1 2050
1 2051
1 2052
1 2060
1 2064
1 2065
1 2070
1 2074
1 2076
1 2077
1 2079
1 2083
1 2087
1 2088
1 2101
1 2102
1 2103
1 2106
1 2109
1 2119
1 2122
1 2129
1 2130
1 2131
1 2132
1 2139
1 2145
1 2156
1 2160
1 2162
1 2171
1 2174
1 2175
1 2176
1 2179
1 2181
1 2186
1 2187
1 2192
1 2193
1 2196
1 2201
1 2210
1 2212
1 2217
1 2218
1 2219
1 2223
1 2227
1 2228
1 2238
1 2240
1 2241
1 2242
1 2248
1 2253
1 2256
1 2259
1 2260
1 2269
1 2272
1 2280
1 2282
1 2288
1 2292
1 2293
1 2294
1 2303
1 2307
1 2308
1 2314
1 2323
1 2324
1 2325
1 2326
1 2330
1 2333
1 2335
1 2344
1 2345
1 2356
1 2359
1 2374
1 2382
1 2383
1 2384
1 2388
1 2390
1 2392
1 2395
1 2400
1 2405
1 2407
1 2412
1 2414
1 2417
1 2428
1 2429
1 2430
1 2441
1 2442
1 2443
1 2444
1 2459
1 2460
1 2464
1 2468
1 2469
1 2471
1 2473
1 2475
1 2476
1 2478
1 2481
1 2485
1 2487
1 2499
1 2507
1 2508
1 2509
1 2516
1 2522
1 2526
1 2530
1 2533
1 2534
1 2537
1 2540
1 2543
1 2544
1 2546
1 2550
1 2554
1 2557
1 2558
1 2560
1 2564
1 2567
1 2571
1 2572
1 2574
1 2585
1 2589
1 2593
1 2595
1 2601
1 2603
1 2609
1 2610
1 2614
1 2626
1 2628
1 2631
1 2632
1 2639
1 2643
1 2645
1 2647
1 2652
1 2655
1 2659
1 2664
1 2673
1 2674
1 2679
1 2686
1 2688
1 2690
1 2692
1 2701
1 2721
1 2723
1 2742
1 2745
1 2757
1 2760
1 2762
1 2763
1 2774
1 2775
1 2781
1 2782
1 2785
1 2794
1 2797
1 2800
1 2801
1 2802
1 2807
1 2808
1 2809
1 2816
1 2821
1 2822
1 2824
1 2834
1 2843
1 2856
1 2858
1 2862
1 2870
1 2872
1 2884
1 2885
1 2886
1 2889
1 2894
1 2896
1 2903
1 2906
1 2911
1 2919
1 2922
1 2924
1 2932
1 2934
1 2937
1 2938
1 2945
1 2946
1 2947
1 2949
1 2950
1 2951
1 2952
1 2954
1 2955
1 2956
1 2967
1 2974
1 2979
1 2981
1 2989
1 2999
1 3010
1 3013
1 3015
1 3019
1 3023
1 3030
1 3032
1 3034
1 3035
1 3038
1 3043
1 3044
1 3046
1 3051
1 3052
1 3053
1 3055
1 3059
1 3064
1 3065
1 3069
1 3074
1 3077
1 3083
1 3084
1 3086
1 3089
1 3098
1 3103
1 3105
1 3107
1 3111
1 3112
1 3114
1 3118
1 3124
1 3135
1 3136
1 3139
1 3140
1 3141
1 3143
1 3148
1 3149
1 3153
1 3155
1 3166
1 3179
1 3181
1 3183
1 3186
1 3198
1 3201
1 3202
1 3213
1 3215
1 3218
1 3219
1 3227
1 3228
1 3229
1 3230
1 3234
1 3235
1 3240
1 3244
1 3248
1 3254
1 3255
1 3262
1 3263
1 3264
1 3265
1 3268
1 3273
1 3274
1 3278
1 3281
1 3282
1 3286
1 3288
1 3292
1 3295
1 3297
1 3306
1 3320
1 3328
1 3330
1 3331
1 3337
1 3342
1 3344
1 3348
1 3350
1 3355
1 3358
1 3362
1 3370
1 3373
1 3378
1 3381
1 3392
1 3401
1 3416
1 3418
1 3428
1 3432
1 3445
1 3453
1 3455
1 3473
1 3476
1 3478
1 3484
1 3489
1 3490
1 3491
1 3492
1 3497
1 3502
1 3509
1 3515
1 3521
1 3524
1 3525
1 3532
1 3535
1 3543
1 3547
1 3559
1 3560
1 3575
1 3576
1 3578
1 3581
1 3583
1 3587
1 3594
1 3598
1 3600
1 3603
1 3604
1 3605
1 3606
1 3607
1 3609
1 3615
1 3617
1 3621
1 3623
1 3627
1 3631
1 3635
1 3643
1 3644
1 3645
1 3646
1 3647
1 3662
1 3665
1 3667
1 3675
1 3676
1 3677
1 3678
1 3681
1 3691
1 3697
1 3699
1 3704
1 3706
1 3709
1 3719
1 3726
1 3728
1 3733
1 3734
1 3737
1 3738
1 3739
1 3749
1 3754
1 3756
1 3758
1 3759
1 3760
1 3767
1 3770
1 3772
1 3773
1 3774
1 3777
1 3784
1 3786
1 3788
1 3793
1 3796
1 3799
1 3806
1 3810
1 3811
1 3822
1 3840
1 3842
1 3843
1 3858
1 3863
1 3870
1 3871
1 3872
1 3880
1 3882
1 3890
1 3891
1 3893
1 3894
1 3895
1 3896
1 3898
1 3903
1 3905
1 3908
1 3910
1 3911
1 3925
1 3927
1 3928
1 3929
1 3937
1 3944
1 3947
1 3953
1 3954
1 3956
1 3958
1 3961
1 3964
1 3965
1 3966
1 3968
1 3971
1 3977
1 3979
1 3982
1 3989
1 3990
1 3993
1 3997
1 4006
1 3460
1 2010
1 2012
1 2023
1 2029
1 2031
1 2038
1 2053
1 2056
1 2058
1 2063
1 2066
1 2068
1 2069
1 2081
1 2082
1 2085
1 2091
1 2093
1 2098
1 2099
1 2108
1 2112
1 2113
1 2116
1 2120
1 2126
1 2127
1 2135
1 2144
1 2147
1 2148
1 2149
1 2150
1 2154
1 2159
1 2163
1 2166
1 2170
1 2172
1 2180
1 2184
1 2189
1 2190
1 2194
1 2198
1 2204
1 2209
1 2211
1 2213
1 2216
1 2220
1 2224
1 2225
1 2230
1 2231
1 2232
1 2233
1 2239
1 2247
1 2249
1 2261
1 2263
1 2265
1 2268
1 2270
1 2271
1 2274
1 2278
1 2281
1 2286
1 2287
1 2298
1 2301
1 2302
1 2305
1 2312
1 2313
1 2316
1 2320
1 2327
1 2331
1 2336
1 2360
1 2361
1 2363
1 2367
1 2369
1 2370
1 2371
1 2377
1 2381
1 2386
1 2391
1 2393
1 2398
1 2402
1 2403
1 2413
1 2418
1 2421
1 2424
1 2427
1 2431
1 2433
1 2436
1 2445
1 2446
1 2447
1 2450
1 2451
1 2456
1 2457
1 2461
1 2465
1 2467
1 2470
1 2482
1 2483
1 2484
1 2486
1 2491
1 2495
1 2496
1 2498
1 2500
1 2501
1 2502
1 2511
1 2512
1 2514
1 2519
1 2524
1 2532
1 2539
1 2545
1 2547
1 2551
1 2555
1 2556
1 2561
1 2562
1 2566
1 2568
1 2569
1 2570
1 2577
1 2579
1 2582
1 2586
1 2587
1 2588
1 2590
1 2596
1 2598
1 2604
1 2605
1 2606
1 2620
1 2625
1 2627
1 2630
1 2634
1 2635
1 2649
1 2654
1 2656
1 2660
1 2661
1 2668
1 2672
1 2680
1 2684
1 2687
1 2689
1 2693
1 2697
1 2700
1 2702
1 2703
1 2706
1 2707
1 2709
1 2713
1 2726
1 2730
1 2734
1 2738
1 2739
1 2747
1 2748
1 2749
1 2753
1 2755
1 2765
1 2772
1 2776
1 2778
1 2784
1 2791
1 2793
1 2795
1 2811
1 2814
1 2815
1 2817
1 2827
1 2833
1 2837
1 2839
1 2845
1 2850
1 2859
1 2863
1 2864
1 2877
1 2880
1 2887
1 2898
1 2902
1 2914
1 2915
1 2920
1 2921
1 2925
1 2927
1 2929
1 2936
1 2939
1 2940
1 2942
1 2943
1 2957
1 2958
1 2959
1 2960
1 2961
1 2962
1 2964
1 2972
1 2990
1 2994
1 2995
1 2996
1 2997
1 3001
1 3003
1 3009
1 3011
1 3017
1 3018
1 3022
1 3025
1 3026
1 3028
1 3036
1 3041
1 3047
1 3048
1 3054
1 3066
1 3067
1 3068
1 3071
1 3080
1 3081
1 3090
1 3095
1 3096
1 3099
1 3102
1 3104
1 3110
1 3120
1 3130
1 3134
1 3138
1 3146
1 3151
1 3152
1 3156
1 3157
1 3159
1 3162
1 3163
1 3165
1 3167
1 3168
1 3172
1 3174
1 3175
1 3176
1 3180
1 3188
1 3189
1 3190
1 3192
1 3193
1 3199
1 3200
1 3209
1 3212
1 3220
1 3224
1 3233
1 3241
1 3247
1 3249
1 3250
1 3253
1 3258
1 3259
1 3266
1 3269
1 3270
1 3275
1 3276
1 3280
1 3283
1 3284
1 3289
1 3307
1 3308
1 3312
1 3313
1 3316
1 3321
1 3322
1 3325
1 3329
1 3333
1 3336
1 3338
1 3339
1 3341
1 3343
1 3345
1 3349
1 3356
1 3363
1 3364
1 3369
1 3371
1 3376
1 3380
1 3384
1 3388
1 3390
1 3394
1 3395
1 3396
1 3398
1 3402
1 3413
1 3415
1 3419
1 3420
1 3424
1 3426
1 3427
1 3429
1 3431
1 3434
1 3440
1 3442
1 3443
1 3447
1 3448
1 3449
1 3458
1 3462
1 3463
1 3464
1 3469
1 3470
1 3471
1 3477
1 3479
1 3483
1 3486
1 3494
1 3496
1 3501
1 3503
1 3512
1 3513
1 3516
1 3517
1 3518
1 3522
1 3527
1 3531
1 3533
1 3539
1 3541
1 3546
1 3552
1 3554
1 3561
1 3566
1 3568
1 3569
1 3577
1 3579
1 3593
1 3595
1 3599
1 3601
1 3602
1 3611
1 3616
1 3618
1 3619
1 3620
1 3637
1 3649
1 3664
1 3668
1 3670
1 3671
1 3679
1 3680
1 3686
1 3695
1 3702
1 3710
1 3712
1 3729
1 3730
1 3731
1 3740
1 3746
1 3751
1 3755
1 3764
1 3765
1 3768
1 3769
1 3776
1 3778
1 3782
1 3783
1 3785
1 3787
1 3790
1 3801
1 3803
1 3807
1 3808
1 3816
1 3817
1 3823
1 3825
1 3827
1 3828
1 3835
1 3836
1 3837
1 3838
1 3839
1 3841
1 3847
1 3852
1 3853
1 3857
1 3859
1 3862
1 3865
1 3867
1 3873
1 3874
1 3877
1 3881
1 3884
1 3892
1 3899
1 3902
1 3909
1 3912
1 3914
1 3919
1 3922
1 3936
1 3939
1 3941
1 3943
1 3945
1 3949
1 3952
1 3955
1 3959
1 3960
1 3962
1 3963
1 3970
1 3973
1 3975
1 3983
1 3986
1 3996
1 3998
1 4001
1 4002
1 4003
2006 2898
2 2898
3 2898
4 2898
5 2898
6 2898
7 2898
8 2898
9 2898
10 2898
11 2898
12 2898
13 2898
14 2898
15 2898
16 2898
17 2898
18 2898
19 2898
20 2898
21 2898
22 2898
23 2898
24 2898
25 2898
26 2898
27 2898
28 2898
29 2898
30 2898
31 2898
32 2898
33 2898
34 2898
35 2898
36 2898
37 2898
38 2898
39 2898
40 2898
41 2898
42 2898
43 2898
44 2898
45 2898
46 2898
47 2898
48 2898
49 2898
50 2898
51 2898
52 2898
53 2898
54 2898
55 2898
56 2898
57 2898
58 2898
59 2898
60 2898
61 2898
62 2898
63 2898
64 2898
65 2898
66 2898
67 2898
68 2898
69 2898
70 2898
71 2898
72 2898
73 2898
74 2898
75 2898
76 2898
77 2898
78 2898
79 2898
80 2898
81 2898
82 2898
83 2898
84 2898
85 2898
86 2898
87 2898
88 2898
89 2898
90 2898
91 2898
92 2898
93 2898
94 2898
95 2898
96 2898
97 2898
98 2898
99 2898
100 2898
101 2898
102 2898
103 2898
104 2898
105 2898
106 2898
107 2898
108 2898
109 2898
110 2898
111 2898
112 2898
113 2898
114 2898
115 2898
116 2898
117 2898
118 2898
119 2898
120 2898
121 2898
122 2898
123 2898
124 2898
125 2898
126 2898
127 2898
128 2898
129 2898
130 2898
131 2898
132 2898
133 2898
134 2898
135 2898
136 2898
137 2898
138 2898
139 2898
140 2898
141 2898
142 2898
143 2898
144 2898
145 2898
146 2898
147 2898
148 2898
149 2898
150 2898
151 2898
152 2898
153 2898
154 2898
155 2898
156 2898
157 2898
158 2898
159 2898
160 2898
161 2898
162 2898
163 2898
164 2898
165 2898
166 2898
167 2898
168 2898
169 2898
170 2898
171 2898
172 2898
173 2898
174 2898
175 2898
176 2898
177 2898
178 2898
179 2898
180 2898
181 2898
182 2898
183 2898
184 2898
185 2898
186 2898
187 2898
188 2898
189 2898
190 2898
191 2898
192 2898
193 2898
194 2898
195 2898
196 2898
197 2898
198 2898
199 2898
200 2898
201 2898
202 2898
203 2898
204 2898
205 2898
206 2898
207 2898
208 2898
209 2898
210 2898
211 2898
212 2898
213 2898
214 2898
215 2898
216 2898
217 2898
218 2898
219 2898
220 2898
221 2898
222 2898
223 2898
224 2898
225 2898
226 2898
227 2898
228 2898
229 2898
230 2898
231 2898
232 2898
233 2898
234 2898
235 2898
236 2898
237 2898
238 2898
239 2898
240 2898
241 2898
242 2898
243 2898
244 2898
245 2898
246 2898
247 2898
248 2898
249 2898
250 2898
251 2898
252 2898
253 2898
254 2898
255 2898
256 2898
257 2898
258 2898
259 2898
260 2898
261 2898
262 2898
263 2898
264 2898
265 2898
266 2898
267 2898
268 2898
269 2898
270 2898
271 2898
272 2898
273 2898
274 2898
275 2898
276 2898
277 2898
278 2898
279 2898
280 2898
281 2898
282 2898
283 2898
284 2898
285 2898
286 2898
287 2898
288 2898
289 2898
290 2898
291 2898
292 2898
293 2898
294 2898
295 2898
296 2898
297 2898
298 2898
299 2898
300 2898
301 2898
302 2898
303 2898
304 2898
305 2898
306 2898
307 2898
308 2898
309 2898
310 2898
311 2898
312 2898
313 2898
314 2898
315 2898
316 2898
317 2898
318 2898
319 2898
320 2898
321 2898
322 2898
323 2898
324 2898
325 2898
326 2898
327 2898
328 2898
329 2898
330 2898
331 2898
332 2898
333 2898
334 2898
335 2898
336 2898
337 2898
338 2898
339 2898
340 2898
341 2898
342 2898
343 2898
344 2898
345 2898
346 2898
347 2898
348 2898
349 2898
350 2898
351 2898
352 2898
353 2898
354 2898
355 2898
356 2898
357 2898
358 2898
359 2898
360 2898
361 2898
362 2898
363 2898
364 2898
365 2898
366 2898
367 2898
368 2898
369 2898
370 2898
371 2898
372 2898
373 2898
374 2898
375 2898
376 2898
377 2898
378 2898
379 2898
380 2898
381 2898
382 2898
383 2898
384 2898
385 2898
386 2898
387 2898
388 2898
389 2898
390 2898
391 2898
392 2898
393 2898
394 2898
395 2898
396 2898
397 2898
398 2898
399 2898
400 2898
401 2898
402 2898
403 2898
404 2898
405 2898
406 2898
407 2898
408 2898
409 2898
410 2898
411 2898
412 2898
413 2898
414 2898
415 2898
416 2898
417 2898
418 2898
419 2898
420 2898
421 2898
422 2898
423 2898
424 2898
425 2898
426 2898
427 2898
428 2898
429 2898
430 2898
431 2898
432 2898
433 2898
434 2898
435 2898
436 2898
437 2898
438 2898
439 2898
440 2898
441 2898
442 2898
443 2898
444 2898
445 2898
446 2898
447 2898
448 2898
449 2898
450 2898
451 2898
452 2898
453 2898
454 2898
455 2898
456 2898
457 2898
458 2898
459 2898
460 2898
461 2898
462 2898
463 2898
464 2898
465 2898
466 2898
467 2898
468 2898
469 2898
470 2898
471 2898
472 2898
473 2898
474 2898
475 2898
476 2898
477 2898
478 2898
479 2898
480 2898
481 2898
482 2898
483 2898
484 2898
485 2898
486 2898
487 2898
488 2898
489 2898
490 2898
491 2898
492 2898
493 2898
494 2898
495 2898
496 2898
497 2898
498 2898
499 2898
500 2898
501 3195
1004 3195
1005 3195
1006 3195
1007 3195
1008 3195
1009 3195
1010 3195
1011 3195
1012 3195
1013 3195
1014 3195
1015 3195
1016 3195
1017 3195
1018 3195
1019 3195
1020 3195
1021 3195
1022 3195
1023 3195
1024 3195
1025 3195
1026 3195
1027 3195
1028 3195
1029 3195
1030 3195
1031 3195
1032 3195
1033 3195
1034 3195
1035 3195
1036 3195
1037 3195
1038 3195
1039 3195
1040 3195
1041 3195
1042 3195
1043 3195
1044 3195
1045 3195
1046 3195
1047 3195
1048 3195
1049 3195
1050 3195
1051 3195
1052 3195
1053 3195
1054 3195
1055 3195
1056 3195
1057 3195
1058 3195
1059 3195
1060 3195
1061 3195
1062 3195
1063 3195
1064 3195
1065 3195
1066 3195
1067 3195
1068 3195
1069 3195
1070 3195
1071 3195
1072 3195
1073 3195
1074 3195
1075 3195
1076 3195
1077 3195
1078 3195
1079 3195
1080 3195
1081 3195
1082 3195
1083 3195
1084 3195
1085 3195
1086 3195
1087 3195
1088 3195
1089 3195
1090 3195
1091 3195
1092 3195
1093 3195
1094 3195
1095 3195
1096 3195
1097 3195
1098 3195
1099 3195
1100 3195
1101 3195
1102 3195
1103 3195
1104 3195
1105 3195
1106 3195
1107 3195
1108 3195
1109 3195
1110 3195
1111 3195
1112 3195
1113 3195
1114 3195
1115 3195
1116 3195
1117 3195
1118 3195
1119 3195
1120 3195
1121 3195
1122 3195
1123 3195
1124 3195
1125 3195
1126 3195
1127 3195
1128 3195
1129 3195
1130 3195
1131 3195
1132 3195
1133 3195
1134 3195
1135 3195
1136 3195
1137 3195
1138 3195
1139 3195
1140 3195
1141 3195
1142 3195
1143 3195
1144 3195
1145 3195
1146 3195
1147 3195
1148 3195
1149 3195
1150 3195
1151 3195
1152 3195
1153 3195
1154 3195
1155 3195
1156 3195
1157 3195
1158 3195
1159 3195
1160 3195
1161 3195
1162 3195
1163 3195
1164 3195
1165 3195
1166 3195
1167 3195
1168 3195
1169 3195
1170 3195
1171 3195
1172 3195
1173 3195
1174 3195
1175 3195
1176 3195
1177 3195
1178 3195
1179 3195
1180 3195
1181 3195
1182 3195
1183 3195
1184 3195
1185 3195
1186 3195
1187 3195
1188 3195
1189 3195
1190 3195
1191 3195
1192 3195
1193 3195
1194 3195
1195 3195
1196 3195
1197 3195
1198 3195
1199 3195
1200 3195
1201 3195
1202 3195
1203 3195
1204 3195
1205 3195
1206 3195
1207 3195
1208 3195
1209 3195
1210 3195
1211 3195
1212 3195
1213 3195
1214 3195
1215 3195
1216 3195
1217 3195
1218 3195
1219 3195
1220 3195
1221 3195
1222 3195
1223 3195
1224 3195
1225 3195
1226 3195
1227 3195
1228 3195
1229 3195
1230 3195
1231 3195
1232 3195
1233 3195
1234 3195
1235 3195
1236 3195
1237 3195
1238 3195
1239 3195
1240 3195
1241 3195
1242 3195
1243 3195
1244 3195
1245 3195
1246 3195
1247 3195
1248 3195
1249 3195
1250 3195
1251 3195
1252 3195
1253 3195
1254 3195
1255 3195
1256 3195
1257 3195
1258 3195
1259 3195
1260 3195
1261 3195
1262 3195
1263 3195
1264 3195
1265 3195
1266 3195
1267 3195
1268 3195
1269 3195
1270 3195
1271 3195
1272 3195
1273 3195
1274 3195
1275 3195
1276 3195
1277 3195
1278 3195
1279 3195
1280 3195
1281 3195
1282 3195
1283 3195
1284 3195
1285 3195
1286 3195
1287 3195
1288 3195
1289 3195
1290 3195
1291 3195
1292 3195
1293 3195
1294 3195
1295 3195
1296 3195
1297 3195
1298 3195
1299 3195
1300 3195
1301 3195
1302 3195
1303 3195
1304 3195
1305 3195
1306 3195
1307 3195
1308 3195
1309 3195
1310 3195
1311 3195
1312 3195
1313 3195
1314 3195
1315 3195
1316 3195
1317 3195
1318 3195
1319 3195
1320 3195
1321 3195
1322 3195
1323 3195
1324 3195
1325 3195
1326 3195
1327 3195
1328 3195
1329 3195
1330 3195
1331 3195
1332 3195
1333 3195
1334 3195
1335 3195
1336 3195
1337 3195
1338 3195
1339 3195
1340 3195
1341 3195
1342 3195
1343 3195
1344 3195
1345 3195
1346 3195
1347 3195
1348 3195
1349 3195
1350 3195
1351 3195
1352 3195
1353 3195
1354 3195
1355 3195
1356 3195
1357 3195
1358 3195
1359 3195
1360 3195
1361 3195
1362 3195
1363 3195
1364 3195
1365 3195
1366 3195
1367 3195
1368 3195
1369 3195
1370 3195
1371 3195
1372 3195
1373 3195
1374 3195
1375 3195
1376 3195
1377 3195
1378 3195
1379 3195
1380 3195
1381 3195
1382 3195
1383 3195
1384 3195
1385 3195
1386 3195
1387 3195
1388 3195
1389 3195
1390 3195
1391 3195
1392 3195
1393 3195
1394 3195
1395 3195
1396 3195
1397 3195
1398 3195
1399 3195
1400 3195
1401 3195
1402 3195
1403 3195
1404 3195
1405 3195
1406 3195
1407 3195
1408 3195
1409 3195
1410 3195
1411 3195
1412 3195
1413 3195
1414 3195
1415 3195
1416 3195
1417 3195
1418 3195
1419 3195
1420 3195
1421 3195
1422 3195
1423 3195
1424 3195
1425 3195
1426 3195
1427 3195
1428 3195
1429 3195
1430 3195
1431 3195
1432 3195
1433 3195
1434 3195
1435 3195
1436 3195
1437 3195
1438 3195
1439 3195
1440 3195
1441 3195
1442 3195
1443 3195
1444 3195
1445 3195
1446 3195
1447 3195
1448 3195
1449 3195
1450 3195
1451 3195
1452 3195
1453 3195
1454 3195
1455 3195
1456 3195
1457 3195
1458 3195
1459 3195
1460 3195
1461 3195
1462 3195
1463 3195
1464 3195
1465 3195
1466 3195
1467 3195
1468 3195
1469 3195
1470 3195
1471 3195
1472 3195
1473 3195
1474 3195
1475 3195
1476 3195
1477 3195
1478 3195
1479 3195
1480 3195
1481 3195
1482 3195
1483 3195
1484 3195
1485 3195
1486 3195
1487 3195
1488 3195
1489 3195
1490 3195
1491 3195
1492 3195
1493 3195
1494 3195
1495 3195
1496 3195
1497 3195
1498 3195
1499 3195
1500 3195
1501 3195
1502 3195
1503 3195
1504 3195
1505 2898
502 2898
503 2898
504 2898
505 2898
506 2898
507 2898
508 2898
509 2898
510 2898
511 2898
512 2898
513 2898
514 2898
515 2898
516 2898
517 2898
518 2898
519 2898
520 2898
521 2898
522 2898
523 2898
524 2898
525 2898
526 2898
527 2898
528 2898
529 2898
530 2898
531 2898
532 2898
533 2898
534 2898
535 2898
536 2898
537 2898
538 2898
539 2898
540 2898
541 2898
542 2898
543 2898
544 2898
545 2898
546 2898
547 2898
548 2898
549 2898
550 2898
551 2898
552 2898
553 2898
554 2898
555 2898
556 2898
557 2898
558 2898
559 2898
560 2898
561 2898
562 2898
563 2898
564 2898
565 2898
566 2898
567 2898
568 2898
569 2898
570 2898
571 2898
572 2898
573 2898
574 2898
575 2898
576 2898
577 2898
578 2898
579 2898
580 2898
581 2898
582 2898
583 2898
584 2898
585 2898
586 2898
587 2898
588 2898
589 2898
590 2898
591 2898
592 2898
593 2898
594 2898
595 2898
596 2898
597 2898
598 2898
599 2898
600 2898
601 2898
602 2898
603 2898
604 2898
605 2898
606 2898
607 2898
608 2898
609 2898
610 2898
611 2898
612 2898
613 2898
614 2898
615 2898
616 2898
617 2898
618 2898
619 2898
620 2898
621 2898
622 2898
623 2898
624 2898
625 2898
626 2898
627 2898
628 2898
629 2898
630 2898
631 2898
632 2898
633 2898
634 2898
635 2898
636 2898
637 2898
638 2898
639 2898
640 2898
641 2898
642 2898
643 2898
644 2898
645 2898
646 2898
647 2898
648 2898
649 2898
650 2898
651 2898
652 2898
653 2898
654 2898
655 2898
656 2898
657 2898
658 2898
659 2898
660 2898
661 2898
662 2898
663 2898
664 2898
665 2898
666 2898
667 2898
668 2898
669 2898
670 2898
671 2898
672 2898
673 2898
674 2898
675 2898
676 2898
677 2898
678 2898
679 2898
680 2898
681 2898
682 2898
683 2898
684 2898
685 2898
686 2898
687 2898
688 2898
689 2898
690 2898
691 2898
692 2898
693 2898
694 2898
695 2898
696 2898
697 2898
698 2898
699 2898
700 2898
701 2898
702 2898
703 2898
704 2898
705 2898
706 2898
707 2898
708 2898
709 2898
710 2898
711 2898
712 2898
713 2898
714 2898
715 2898
716 2898
717 2898
718 2898
719 2898
720 2898
721 2898
722 2898
723 2898
724 2898
725 2898
726 2898
727 2898
728 2898
729 2898
730 2898
731 2898
732 2898
733 2898
734 2898
735 2898
736 2898
737 2898
738 2898
739 2898
740 2898
741 2898
742 2898
743 2898
744 2898
745 2898
746 2898
747 2898
748 2898
749 2898
750 2898
751 2898
752 2898
753 2898
754 2898
755 2898
756 2898
757 2898
758 2898
759 2898
760 2898
761 2898
762 2898
763 2898
764 2898
765 2898
766 2898
767 2898
768 2898
769 2898
770 2898
771 2898
772 2898
773 2898
774 2898
775 2898
776 2898
777 2898
778 2898
779 2898
780 2898
781 2898
782 2898
783 2898
784 2898
785 2898
786 2898
787 2898
788 2898
789 2898
790 2898
791 2898
792 2898
793 2898
794 2898
795 2898
796 2898
797 2898
798 2898
799 2898
800 2898
801 2898
802 2898
803 2898
804 2898
805 2898
806 2898
807 2898
808 2898
809 2898
810 2898
811 2898
812 2898
813 2898
814 2898
815 2898
816 2898
817 2898
818 2898
819 2898
820 2898
821 2898
822 2898
823 2898
824 2898
825 2898
826 2898
827 2898
828 2898
829 2898
830 2898
831 2898
832 2898
833 2898
834 2898
835 2898
836 2898
837 2898
838 2898
839 2898
840 2898
841 2898
842 2898
843 2898
844 2898
845 2898
846 2898
847 2898
848 2898
849 2898
850 2898
851 2898
852 2898
853 2898
854 2898
855 2898
856 2898
857 2898
858 2898
859 2898
860 2898
861 2898
862 2898
863 2898
864 2898
865 2898
866 2898
867 2898
868 2898
869 2898
870 2898
871 2898
872 2898
873 2898
874 2898
875 2898
876 2898
877 2898
878 2898
879 2898
880 2898
881 2898
882 2898
883 2898
884 2898
885 2898
886 2898
887 2898
888 2898
889 2898
890 2898
891 2898
892 2898
893 2898
894 2898
895 2898
896 2898
897 2898
898 2898
899 2898
900 2898
901 2898
902 2898
903 2898
904 2898
905 2898
906 2898
907 2898
908 2898
909 2898
910 2898
911 2898
912 2898
913 2898
914 2898
915 2898
916 2898
917 2898
918 2898
919 2898
920 2898
921 2898
922 2898
923 2898
924 2898
925 2898
926 2898
927 2898
928 2898
929 2898
930 2898
931 2898
932 2898
933 2898
934 2898
935 2898
936 2898
937 2898
938 2898
939 2898
940 2898
941 2898
942 2898
943 2898
944 2898
945 2898
946 2898
947 2898
948 2898
949 2898
950 2898
951 2898
952 2898
953 2898
954 2898
955 2898
956 2898
957 2898
958 2898
959 2898
960 2898
961 2898
962 2898
963 2898
964 2898
965 2898
966 2898
967 2898
968 2898
969 2898
970 2898
971 2898
972 2898
973 2898
974 2898
975 2898
976 2898
977 2898
978 2898
979 2898
980 2898
981 2898
982 2898
983 2898
984 2898
985 2898
986 2898
987 2898
988 2898
989 2898
990 2898
991 2898
992 2898
993 2898
994 2898
995 2898
996 2898
997 2898
998 2898
999 2898
1000 2898
1001 2898
1002 2898
1003 3195
1506 3195
1507 3195
1508 3195
1509 3195
1510 3195
1511 3195
1512 3195
1513 3195
1514 3195
1515 3195
1516 3195
1517 3195
1518 3195
1519 3195
1520 3195
1521 3195
1522 3195
1523 3195
1524 3195
1525 3195
1526 3195
1527 3195
1528 3195
1529 3195
1530 3195
1531 3195
1532 3195
1533 3195
1534 3195
1535 3195
1536 3195
1537 3195
1538 3195
1539 3195
1540 3195
1541 3195
1542 3195
1543 3195
1544 3195
1545 3195
1546 3195
1547 3195
1548 3195
1549 3195
1550 3195
1551 3195
1552 3195
1553 3195
1554 3195
1555 3195
1556 3195
1557 3195
1558 3195
1559 3195
1560 3195
1561 3195
1562 3195
1563 3195
1564 3195
1565 3195
1566 3195
1567 3195
1568 3195
1569 3195
1570 3195
1571 3195
1572 3195
1573 3195
1574 3195
1575 3195
1576 3195
1577 3195
1578 3195
1579 3195
1580 3195
1581 3195
1582 3195
1583 3195
1584 3195
1585 3195
1586 3195
1587 3195
1588 3195
1589 3195
1590 3195
1591 3195
1592 3195
1593 3195
1594 3195
1595 3195
1596 3195
1597 3195
1598 3195
1599 3195
1600 3195
1601 3195
1602 3195
1603 3195
1604 3195
1605 3195
1606 3195
1607 3195
1608 3195
1609 3195
1610 3195
1611 3195
1612 3195
1613 3195
1614 3195
1615 3195
1616 3195
1617 3195
1618 3195
1619 3195
1620 3195
1621 3195
1622 3195
1623 3195
1624 3195
1625 3195
1626 3195
1627 3195
1628 3195
1629 3195
1630 3195
1631 3195
1632 3195
1633 3195
1634 3195
1635 3195
1636 3195
1637 3195
1638 3195
1639 3195
1640 3195
1641 3195
1642 3195
1643 3195
1644 3195
1645 3195
1646 3195
1647 3195
1648 3195
1649 3195
1650 3195
1651 3195
1652 3195
1653 3195
1654 3195
1655 3195
1656 3195
1657 3195
1658 3195
1659 3195
1660 3195
1661 3195
1662 3195
1663 3195
1664 3195
1665 3195
1666 3195
1667 3195
1668 3195
1669 3195
1670 3195
1671 3195
1672 3195
1673 3195
1674 3195
1675 3195
1676 3195
1677 3195
1678 3195
1679 3195
1680 3195
1681 3195
1682 3195
1683 3195
1684 3195
1685 3195
1686 3195
1687 3195
1688 3195
1689 3195
1690 3195
1691 3195
1692 3195
1693 3195
1694 3195
1695 3195
1696 3195
1697 3195
1698 3195
1699 3195
1700 3195
1701 3195
1702 3195
1703 3195
1704 3195
1705 3195
1706 3195
1707 3195
1708 3195
1709 3195
1710 3195
1711 3195
1712 3195
1713 3195
1714 3195
1715 3195
1716 3195
1717 3195
1718 3195
1719 3195
1720 3195
1721 3195
1722 3195
1723 3195
1724 3195
1725 3195
1726 3195
1727 3195
1728 3195
1729 3195
1730 3195
1731 3195
1732 3195
1733 3195
1734 3195
1735 3195
1736 3195
1737 3195
1738 3195
1739 3195
1740 3195
1741 3195
1742 3195
1743 3195
1744 3195
1745 3195
1746 3195
1747 3195
1748 3195
1749 3195
1750 3195
1751 3195
1752 3195
1753 3195
1754 3195
1755 3195
1756 3195
1757 3195
1758 3195
1759 3195
1760 3195
1761 3195
1762 3195
1763 3195
1764 3195
1765 3195
1766 3195
1767 3195
1768 3195
1769 3195
1770 3195
1771 3195
1772 3195
1773 3195
1774 3195
1775 3195
1776 3195
1777 3195
1778 3195
1779 3195
1780 3195
1781 3195
1782 3195
1783 3195
1784 3195
1785 3195
1786 3195
1787 3195
1788 3195
1789 3195
1790 3195
1791 3195
1792 3195
1793 3195
1794 3195
1795 3195
1796 3195
1797 3195
1798 3195
1799 3195
1800 3195
1801 3195
1802 3195
1803 3195
1804 3195
1805 3195
1806 3195
1807 3195
1808 3195
1809 3195
1810 3195
1811 3195
1812 3195
1813 3195
1814 3195
1815 3195
1816 3195
1817 3195
1818 3195
1819 3195
1820 3195
1821 3195
1822 3195
1823 3195
1824 3195
1825 3195
1826 3195
1827 3195
1828 3195
1829 3195
1830 3195
1831 3195
1832 3195
1833 3195
1834 3195
1835 3195
1836 3195
1837 3195
1838 3195
1839 3195
1840 3195
1841 3195
1842 3195
1843 3195
1844 3195
1845 3195
1846 3195
1847 3195
1848 3195
1849 3195
1850 3195
1851 3195
1852 3195
1853 3195
1854 3195
1855 3195
1856 3195
1857 3195
1858 3195
1859 3195
1860 3195
1861 3195
1862 3195
1863 3195
1864 3195
1865 3195
1866 3195
1867 3195
1868 3195
1869 3195
1870 3195
1871 3195
1872 3195
1873 3195
1874 3195
1875 3195
1876 3195
1877 3195
1878 3195
1879 3195
1880 3195
1881 3195
1882 3195
1883 3195
1884 3195
1885 3195
1886 3195
1887 3195
1888 3195
1889 3195
1890 3195
1891 3195
1892 3195
1893 3195
1894 3195
1895 3195
1896 3195
1897 3195
1898 3195
1899 3195
1900 3195
1901 3195
1902 3195
1903 3195
1904 3195
1905 3195
1906 3195
1907 3195
1908 3195
1909 3195
1910 3195
1911 3195
1912 3195
1913 3195
1914 3195
1915 3195
1916 3195
1917 3195
1918 3195
1919 3195
1920 3195
1921 3195
1922 3195
1923 3195
1924 3195
1925 3195
1926 3195
1927 3195
1928 3195
1929 3195
1930 3195
1931 3195
1932 3195
1933 3195
1934 3195
1935 3195
1936 3195
1937 3195
1938 3195
1939 3195
1940 3195
1941 3195
1942 3195
1943 3195
1944 3195
1945 3195
1946 3195
1947 3195
1948 3195
1949 3195
1950 3195
1951 3195
1952 3195
1953 3195
1954 3195
1955 3195
1956 3195
1957 3195
1958 3195
1959 3195
1960 3195
1961 3195
1962 3195
1963 3195
1964 3195
1965 3195
1966 3195
1967 3195
1968 3195
1969 3195
1970 3195
1971 3195
1972 3195
1973 3195
1974 3195
1975 3195
1976 3195
1977 3195
1978 3195
1979 3195
1980 3195
1981 3195
1982 3195
1983 3195
1984 3195
1985 3195
1986 3195
1987 3195
1988 3195
1989 3195
1990 3195
1991 3195
1992 3195
1993 3195
1994 3195
1995 3195
1996 3195
1997 3195
1998 3195
1999 3195
2000 3195
2001 3195
2002 3195
2003 3195
2004 3195
2005 2008
2005 2014
2005 2015
2005 2016
2005 2025
2005 2027
2005 2033
2005 2034
2005 2042
2005 2045
2005 2047
2005 2059
2005 2061
2005 2071
2005 2075
2005 2090
2005 2094
2005 2095
2005 2096
2005 2097
2005 2100
2005 2104
2005 2105
2005 2114
2005 2115
2005 2117
2005 2118
2005 2124
2005 2125
2005 2136
2005 2140
2005 2142
2005 2143
2005 2146
2005 2151
2005 2152
2005 2161
2005 2165
2005 2167
2005 2168
2005 2177
2005 2178
2005 2199
2005 2200
2005 2203
2005 2205
2005 2206
2005 2207
2005 2214
2005 2221
2005 2222
2005 2226
2005 2229
2005 2235
2005 2236
2005 2244
2005 2245
2005 2246
2005 2251
2005 2252
2005 2258
2005 2264
2005 2275
2005 2276
2005 2277
2005 2279
2005 2283
2005 2284
2005 2285
2005 2289
2005 2290
2005 2291
2005 2295
2005 2296
2005 2304
2005 2309
2005 2311
2005 2315
2005 2317
2005 2334
2005 2338
2005 2339
2005 2341
2005 2342
2005 2349
2005 2352
2005 2353
2005 2354
2005 2365
2005 2366
2005 2376
2005 2380
2005 2387
2005 2389
2005 2396
2005 2399
2005 2401
2005 2406
2005 2410
2005 2411
2005 2422
2005 2434
2005 2435
2005 2448
2005 2449
2005 2453
2005 2455
2005 2458
2005 2462
2005 2466
2005 2472
2005 2477
2005 2479
2005 2480
2005 2490
2005 2492
2005 2503
2005 2510
2005 2513
2005 2515
2005 2517
2005 2518
2005 2520
2005 2521
2005 2523
2005 2525
2005 2527
2005 2528
2005 2535
2005 2542
2005 2552
2005 2553
2005 2575
2005 2576
2005 2578
2005 2580
2005 2581
2005 2583
2005 2591
2005 2592
2005 2602
2005 2607
2005 2608
2005 2613
2005 2615
2005 2616
2005 2618
2005 2619
2005 2623
2005 2636
2005 2637
2005 2638
2005 2640
2005 2642
2005 2648
2005 2650
2005 2657
2005 2670
2005 2675
2005 2676
2005 2678
2005 2682
2005 2683
2005 2691
2005 2694
2005 2696
2005 2704
2005 2710
2005 2712
2005 2714
2005 2716
2005 2724
2005 2729
2005 2731
2005 2732
2005 2736
2005 2740
2005 2741
2005 2743
2005 2746
2005 2752
2005 2754
2005 2759
2005 2766
2005 2769
2005 2783
2005 2787
2005 2790
2005 2798
2005 2799
2005 2803
2005 2804
2005 2806
2005 2810
2005 2812
2005 2823
2005 2825
2005 2832
2005 2835
2005 2840
2005 2841
2005 2842
2005 2844
2005 2848
2005 2851
2005 2852
2005 2854
2005 2866
2005 2868
2005 2869
2005 2873
2005 2874
2005 2878
2005 2881
2005 2882
2005 2890
2005 2892
2005 2893
2005 2899
2005 2900
2005 2901
2005 2904
2005 2909
2005 2910
2005 2923
2005 2930
2005 2933
2005 2935
2005 2944
2005 2948
2005 2963
2005 2965
2005 2966
2005 2970
2005 2975
2005 2978
2005 2980
2005 2982
2005 2983
2005 2984
2005 2985
2005 2986
2005 2987
2005 2991
2005 2993
2005 2998
2005 3000
2005 3002
2005 3007
2005 3020
2005 3021
2005 3027
2005 3037
2005 3049
2005 3058
2005 3060
2005 3061
2005 3073
2005 3075
2005 3076
2005 3079
2005 3088
2005 3091
2005 3094
2005 3097
2005 3100
2005 3108
2005 3109
2005 3113
2005 3115
2005 3116
2005 3117
2005 3121
2005 3123
2005 3129
2005 3131
2005 3132
2005 3137
2005 3142
2005 3145
2005 3150
2005 3154
2005 3158
2005 3161
2005 3164
2005 3178
2005 3185
2005 3187
2005 3191
2005 3194
2005 3196
2005 3197
2005 3203
2005 3207
2005 3210
2005 3221
2005 3222
2005 3231
2005 3236
2005 3238
2005 3239
2005 3242
2005 3243
2005 3245
2005 3251
2005 3252
2005 3256
2005 3257
2005 3261
2005 3271
2005 3277
2005 3279
2005 3285
2005 3287
2005 3290
2005 3291
2005 3294
2005 3296
2005 3299
2005 3301
2005 3304
2005 3305
2005 3310
2005 3314
2005 3315
2005 3317
2005 3319
2005 3324
2005 3327
2005 3340
2005 3346
2005 3347
2005 3353
2005 3354
2005 3357
2005 3360
2005 3375
2005 3379
2005 3382
2005 3383
2005 3386
2005 3387
2005 3397
2005 3399
2005 3404
2005 3408
2005 3410
2005 3411
2005 3414
2005 3417
2005 3423
2005 3430
2005 3433
2005 3437
2005 3441
2005 3444
2005 3451
2005 3461
2005 3467
2005 3468
2005 3472
2005 3474
2005 3480
2005 3481
2005 3482
2005 3485
2005 3487
2005 3488
2005 3493
2005 3504
2005 3505
2005 3506
2005 3507
2005 3508
2005 3514
2005 3519
2005 3520
2005 3523
2005 3529
2005 3536
2005 3538
2005 3544
2005 3545
2005 3550
2005 3551
2005 3555
2005 3558
2005 3562
2005 3563
2005 3565
2005 3567
2005 3573
2005 3580
2005 3582
2005 3584
2005 3586
2005 3588
2005 3589
2005 3590
2005 3596
2005 3597
2005 3610
2005 3629
2005 3632
2005 3633
2005 3634
2005 3636
2005 3638
2005 3640
2005 3641
2005 3648
2005 3654
2005 3655
2005 3658
2005 3659
2005 3660
2005 3663
2005 3669
2005 3672
2005 3673
2005 3674
2005 3684
2005 3685
2005 3690
2005 3694
2005 3696
2005 3701
2005 3705
2005 3707
2005 3716
2005 3717
2005 3718
2005 3722
2005 3724
2005 3725
2005 3727
2005 3735
2005 3745
2005 3747
2005 3748
2005 3752
2005 3753
2005 3757
2005 3762
2005 3766
2005 3771
2005 3775
2005 3780
2005 3781
2005 3791
2005 3798
2005 3800
2005 3805
2005 3812
2005 3813
2005 3814
2005 3815
2005 3819
2005 3820
2005 3821
2005 3829
2005 3832
2005 3844
2005 3845
2005 3846
2005 3849
2005 3855
2005 3861
2005 3875
2005 3883
2005 3886
2005 3887
2005 3888
2005 3889
2005 3907
2005 3913
2005 3915
2005 3917
2005 3918
2005 3923
2005 3924
2005 3926
2005 3933
2005 3934
2005 3938
2005 3940
2005 3942
2005 3948
2005 3950
2005 3976
2005 3978
2005 3980
2005 3984
2005 3985
2005 3987
2005 3988
2005 3995
2005 3999
2005 4000
2005 4004
2005 4005
2005 4007
2005 4008
2005 3608
2005 2007
2005 2011
2005 2017
2005 2019
2005 2022
2005 2032
2005 2040
2005 2044
2005 2046
2005 2054
2005 2055
2005 2057
2005 2062
2005 2067
2005 2072
2005 2073
2005 2078
2005 2080
2005 2084
2005 2086
2005 2089
2005 2092
2005 2107
2005 2110
2005 2111
2005 2121
2005 2123
2005 2128
2005 2133
2005 2134
2005 2137
2005 2138
2005 2141
2005 2153
2005 2155
2005 2157
2005 2158
2005 2164
2005 2169
2005 2173
2005 2182
2005 2183
2005 2185
2005 2188
2005 2191
2005 2195
2005 2197
2005 2202
2005 2208
2005 2215
2005 2234
2005 2237
2005 2243
2005 2250
2005 2254
2005 2255
2005 2257
2005 2262
2005 2266
2005 2267
2005 2273
2005 2297
2005 2299
2005 2300
2005 2306
2005 2310
2005 2318
2005 2319
2005 2321
2005 2322
2005 2328
2005 2329
2005 2332
2005 2337
2005 2340
2005 2343
2005 2346
2005 2347
2005 2348
2005 2350
2005 2351
2005 2355
2005 2357
2005 2358
2005 2362
2005 2364
2005 2368
2005 2372
2005 2373
2005 2375
2005 2378
2005 2379
2005 2385
2005 2394
2005 2397
2005 2404
2005 2408
2005 2409
2005 2415
2005 2416
2005 2419
2005 2420
2005 2423
2005 2425
2005 2426
2005 2432
2005 2437
2005 2438
2005 2439
2005 2440
2005 2452
2005 2454
2005 2463
2005 2474
2005 2488
2005 2489
2005 2493
2005 2494
2005 2497
2005 2504
2005 2505
2005 2506
2005 2529
2005 2531
2005 2536
2005 2538
2005 2541
2005 2548
2005 2549
2005 2559
2005 2563
2005 2565
2005 2573
2005 2584
2005 2594
2005 2597
2005 2599
2005 2600
2005 2611
2005 2612
2005 2617
2005 2621
2005 2622
2005 2624
2005 2629
2005 2633
2005 2641
2005 2644
2005 2646
2005 2651
2005 2653
2005 2658
2005 2662
2005 2663
2005 2665
2005 2666
2005 2667
2005 2669
2005 2671
2005 2677
2005 2681
2005 2685
2005 2695
2005 2698
2005 2699
2005 2705
2005 2708
2005 2711
2005 2715
2005 2717
2005 2718
2005 2719
2005 2720
2005 2722
2005 2725
2005 2727
2005 2728
2005 2733
2005 2735
2005 2737
2005 2744
2005 2750
2005 2751
2005 2756
2005 2758
2005 2761
2005 2764
2005 2767
2005 2768
2005 2770
2005 2771
2005 2773
2005 2777
2005 2779
2005 2780
2005 2786
2005 2788
2005 2789
2005 2792
2005 2796
2005 2805
2005 2813
2005 2818
2005 2819
2005 2820
2005 2826
2005 2828
2005 2829
2005 2830
2005 2831
2005 2836
2005 2838
2005 2846
2005 2847
2005 2849
2005 2853
2005 2855
2005 2857
2005 2860
2005 2861
2005 2865
2005 2867
2005 2871
2005 2875
2005 2876
2005 2879
2005 2883
2005 2888
2005 2891
2005 2895
2005 2897
2005 2905
2005 2907
2005 2908
2005 2912
2005 2913
2005 2916
2005 2917
2005 2918
2005 2926
2005 2928
2005 2931
2005 2941
2005 2953
2005 2968
2005 2969
2005 2971
2005 2973
2005 2976
2005 2977
2005 2988
2005 2992
2005 3004
2005 3005
2005 3006
2005 3008
2005 3012
2005 3014
2005 3016
2005 3024
2005 3029
2005 3031
2005 3033
2005 3039
2005 3040
2005 3042
2005 3045
2005 3050
2005 3056
2005 3057
2005 3062
2005 3063
2005 3070
2005 3072
2005 3078
2005 3082
2005 3085
2005 3087
2005 3092
2005 3093
2005 3101
2005 3106
2005 3119
2005 3122
2005 3125
2005 3126
2005 3127
2005 3128
2005 3133
2005 3144
2005 3147
2005 3160
2005 3169
2005 3170
2005 3171
2005 3173
2005 3177
2005 3182
2005 3184
2005 3195
2005 3204
2005 3205
2005 3206
2005 3208
2005 3211
2005 3214
2005 3216
2005 3217
2005 3223
2005 3225
2005 3226
2005 3232
2005 3237
2005 3246
2005 3260
2005 3267
2005 3272
2005 3293
2005 3298
2005 3300
2005 3302
2005 3303
2005 3309
2005 3311
2005 3318
2005 3323
2005 3326
2005 3332
2005 3334
2005 3335
2005 3351
2005 3352
2005 3359
2005 3361
2005 3365
2005 3366
2005 3367
2005 3368
2005 3372
2005 3374
2005 3377
2005 3385
2005 3389
2005 3391
2005 3393
2005 3400
2005 3403
2005 3405
2005 3406
2005 3407
2005 3409
2005 3412
2005 3421
2005 3422
2005 3425
2005 3435
2005 3436
2005 3438
2005 3439
2005 3446
2005 3450
2005 3452
2005 3454
2005 3456
2005 3457
2005 3459
2005 3465
2005 3466
2005 3475
2005 3495
2005 3498
2005 3499
2005 3500
2005 3510
2005 3511
2005 3526
2005 3528
2005 3530
2005 3534
2005 3537
2005 3540
2005 3542
2005 3548
2005 3549
2005 3553
2005 3556
2005 3557
2005 3564
2005 3570
2005 3571
2005 3572
2005 3574
2005 3585
2005 3591
2005 3592
2005 3612
2005 3613
2005 3614
2005 3622
2005 3624
2005 3625
2005 3626
2005 3628
2005 3630
2005 3639
2005 3642
2005 3650
2005 3651
2005 3652
2005 3653
2005 3656
2005 3657
2005 3661
2005 3666
2005 3682
2005 3683
2005 3687
2005 3688
2005 3689
2005 3692
2005 3693
2005 3698
2005 3700
2005 3703
2005 3708
2005 3711
2005 3713
2005 3714
2005 3715
2005 3720
2005 3721
2005 3723
2005 3732
2005 3736
2005 3741
2005 3742
2005 3743
2005 3744
2005 3750
2005 3761
2005 3763
2005 3779
2005 3789
2005 3792
2005 3794
2005 3795
2005 3797
2005 3802
2005 3804
2005 3809
2005 3818
2005 3824
2005 3826
2005 3830
2005 3831
2005 3833
2005 3834
2005 3848
2005 3850
2005 3851
2005 3854
2005 3856
2005 3860
2005 3864
2005 3866
2005 3868
2005 3869
2005 3876
2005 3878
2005 3879
2005 3885
2005 3897
2005 3900
2005 3901
2005 3904
2005 3906
2005 3916
2005 3920
2005 3921
2005 3930
2005 3931
2005 3932
2005 3935
2005 3946
2005 3951
2005 3957
2005 3967
2005 3969
2005 3972
2005 3974
2005 3981
2005 3991
2005 3992
2005 3994
2005 4009
2005 4010
2005 4011
2005 4012
